NAME : gaussian_missing_edges_with_de_nei2_nei3_random103.7174.tour
COMMENT : Length = 7174
COMMENT : Found by LKH [Keld Helsgaun] Fri Jul 12 17:12:40 2024
TYPE : TOUR
DIMENSION : 103
TOUR_SECTION
1
83
57
100
68
102
64
82
99
14
9
8
66
77
42
50
86
53
46
70
84
29
38
59
28
21
61
31
95
85
55
16
52
98
26
48
92
44
51
79
33
3
40
78
45
60
24
15
13
62
2
6
36
47
25
69
30
22
18
12
5
41
71
54
4
96
74
34
49
11
76
80
63
91
37
88
75
103
27
89
19
72
94
43
97
67
10
23
35
7
93
20
39
56
17
32
73
58
65
90
87
81
101
-1
EOF
